unsat
(:cnf-encoding-aux-vars   77
 :eliminated-applications 4
 :eliminated-vars         93
 :max-memory              18.69
 :memory                  18.32
 :nlsat-conflicts         9
 :nlsat-decisions         10
 :nlsat-propagations      35
 :num-allocs              97160
 :rlimit-count            59132
 :time                    0.01
 :total-time              0.02)
